NAME : XML100_3356_03
DIMENSION : 101
NB_CLUSTERS : 16
CLUSTERING_ALG : KMeans
CLUSTERING_PARAMS : k(15)
CLUSTERS
1 0
2 6 11 14 41 46 49 64 87 89 93
3 7 12 22 36 40 56 67 71 75
4 15 27 30 33 48 52 55 61 70 80 81 86 90 99
5 10 45 60 62 65 69 76
6 2 5 19 31 37 54 63 72 78 94 95 100
7 25 42
8 29 38 53 57 59 82 91 92
9 20 26 39 79
10 44 74 77 83 96
11 9 17 58 66 68 88
12 4 8 13 32 34 35 43 47 50 51 84 85
13 1 3 16
14 23 24 73
15 18 97 98
16 21 28
EOF